c description: Random 3-CNF over 23 variables and 98 clauses
c generator: CNFgen (0.9.2)
c copyright: (C) 2012-2022 Massimo Lauria <massimo.lauria@uniroma1.it>
c url: https://massimolauria.net/cnfgen
c command line: cnfgen --output CNF_4.28/23_bit_98_175.cnf randkcnf 3 23 98
c
p cnf 23 98
6 -8 17 0
7 -13 -23 0
-5 15 19 0
7 -10 -16 0
11 -19 21 0
-10 12 17 0
10 -16 23 0
-9 22 23 0
12 -18 -22 0
-1 -6 -9 0
4 -9 -15 0
19 22 -23 0
-2 7 -13 0
1 10 -14 0
-7 -13 -18 0
-7 -11 17 0
3 8 18 0
13 -15 -19 0
4 6 -21 0
-3 14 -20 0
6 -8 9 0
-2 7 -17 0
3 6 -20 0
-7 -17 -20 0
1 -10 -21 0
3 -14 18 0
-16 -17 21 0
11 -19 -23 0
-4 5 12 0
13 -14 -21 0
-2 -6 14 0
1 13 -14 0
-14 -17 22 0
-2 12 -16 0
4 -9 -21 0
4 10 22 0
-8 14 -15 0
4 -14 15 0
2 -6 -8 0
6 7 -14 0
1 -8 -20 0
4 -7 17 0
-2 -6 -19 0
-5 -19 -20 0
-1 -11 -23 0
1 9 19 0
3 -11 23 0
7 -9 21 0
-7 -12 21 0
-5 8 21 0
11 -15 18 0
5 -14 15 0
-1 -18 -23 0
-2 6 -8 0
-9 10 -14 0
1 -5 -22 0
-1 -8 15 0
-8 -10 20 0
-1 10 14 0
5 -9 -17 0
-9 11 19 0
-6 16 17 0
-12 17 19 0
-2 20 23 0
-14 20 22 0
1 -15 18 0
3 10 17 0
-4 12 18 0
-4 -5 7 0
-6 -13 -21 0
-1 -4 12 0
-9 -11 18 0
-2 3 14 0
1 -8 9 0
5 16 23 0
-2 8 -9 0
-3 4 14 0
-2 19 21 0
5 7 12 0
9 -16 21 0
3 6 -14 0
8 12 -22 0
3 -15 -21 0
-1 -2 -13 0
2 -6 -19 0
-8 11 -14 0
7 -9 -14 0
-1 -15 18 0
6 -17 -23 0
-9 14 17 0
9 10 15 0
-1 17 -18 0
1 -9 -16 0
1 -4 5 0
1 -17 18 0
-4 9 20 0
-11 -17 20 0
-2 10 21 0
